db/inputs/1845326259268269913208046591629223683.smt2
(set-logic QF_FP)
(declare-const x0 (_ FloatingPoint 11 53))
(declare-const x1 (_ FloatingPoint 11 53))
(declare-const x2 (_ FloatingPoint 11 53))
(declare-const x3 (_ FloatingPoint 11 53))
(declare-const x4 (_ FloatingPoint 11 53))
(declare-const x5 (_ FloatingPoint 11 53))
(declare-const x6 (_ FloatingPoint 11 53))
(declare-const x7 (_ FloatingPoint 11 53))
(declare-const x8 (_ FloatingPoint 11 53))
(declare-const x9 (_ FloatingPoint 11 53))
(declare-const x10 (_ FloatingPoint 11 53))
(declare-const x11 (_ FloatingPoint 11 53))
(declare-const x12 (_ FloatingPoint 11 53))
(declare-const x13 (_ FloatingPoint 11 53))
(declare-const x14 (_ FloatingPoint 11 53))
(declare-const x15 (_ FloatingPoint 11 53))
(declare-const x16 (_ FloatingPoint 11 53))
(declare-const x17 (_ FloatingPoint 11 53))
(assert (fp.eq (fp.neg (fp.div RNE x12 x13)) (fp.sub RNE (fp.mul RNE x7 x9) (fp.neg x10))))
(assert (fp.eq (fp.add RNE (fp.div RNE x14 x9) (fp.sub RNE x0 x14)) (fp.neg (fp.add RNE x15 x3))))
(assert (fp.gt (fp.div RNE (fp.mul RNE x3 x13) (fp.div RNE x6 x13)) (fp.add RNE (fp.sub RNE x3 x16) (fp.add RNE x0 x15))))
(assert (fp.leq (fp.add RNE (fp.div RNE x13 x1) (fp.div RNE x10 x7)) (fp.mul RNE (fp.neg x17) (fp.add RNE x10 x6))))
(assert (fp.gt (fp.neg (fp.sub RNE x17 x7)) (fp.sub RNE (fp.mul RNE x16 x7) (fp.neg x13))))
(assert (fp.gt (fp.add RNE (fp.mul RNE x9 x8) (fp.neg x4)) (fp.div RNE (fp.mul RNE x13 x7) (fp.div RNE x7 x1))))
(assert (fp.eq (fp.add RNE (fp.sub RNE x14 x0) (fp.add RNE x13 x16)) (fp.add RNE (fp.div RNE x2 x17) (fp.div RNE x10 x6))))
(assert (fp.gt (fp.add RNE (fp.mul RNE x12 x8) (fp.neg x16)) (fp.div RNE (fp.sub RNE x13 x3) (fp.sub RNE x17 x6))))
(check-sat)
