db/data/1845326259268269913208046591629223683.z3.out
-------------------
2500.162676314
